NAME: CMT11_4
TYPE: CVRP
COMMENT: 1042.11 - Cluster Nr.4
DIMENSION: 21
CAPACITY: 200
EDGE_WEIGHT_TYPE: EUC_2D
NODE_COORD_TYPE: TWOD_COORDS
NODE_COORD_SECTION: 
1 87 5
4 85 1
7 73 6
9 73 8
8 90 15
10 85 8
11 87 7
12 79 5
13 76 13
18 78 3
3 76 6
20 82 7
5 84 5
16 79 3
15 84 9
17 10 45
19 76 10
21 84 3
6 82 3
2 78 9
14 79 11
DEPOT_SECTION: 
17
-1
DEMAND_SECTION: 
18 12
9 18
13 7
11 4
21 11
10 4
19 4
14 15
12 16
7 13
16 8
5 10
6 6
15 3
20 5
3 17
1 2
2 13
4 7
17 0
8 9
EOF
